20 43
1 2 1
1 3 4
1 4 1
1 5 2
2 3 3
2 4 5
2 5 4
3 4 5
3 5 2
4 5 1
5 6 5
6 7 5
6 8 1
6 9 5
6 10 2
7 8 3
7 9 4
7 10 3
8 9 2
8 10 5
9 10 5
10 11 4
11 12 2
11 13 5
11 14 1
11 15 4
12 13 3
12 14 4
12 15 2
13 14 5
13 15 5
14 15 5
15 16 3
16 17 5
16 18 4
16 19 3
16 20 2
17 18 2
17 19 4
17 20 3
18 19 4
18 20 2
19 20 4
